
Gurobi 6.5.2 (linux64) logging started Tue Sep 20 21:21:45 2016


Gurobi 6.5.2 (linux64) logging started Tue Sep 20 21:21:45 2016

Optimize a model with 201 rows, 2575 columns and 5237 nonzeros
Coefficient statistics:
  Matrix range    [1e+00, 2e+00]
  Objective range [2e+00, 1e+02]
  Bounds range    [1e+00, 1e+00]
  RHS range       [1e+00, 1e+00]
Presolve removed 75 rows and 47 columns
Presolve time: 0.01s
Presolved: 126 rows, 2528 columns, 5072 nonzeros
Variable types: 0 continuous, 2528 integer (2528 binary)

Root relaxation: objective 1.096500e+03, 145 iterations, 0.00 seconds

    Nodes    |    Current Node    |     Objective Bounds      |     Work
 Expl Unexpl |  Obj  Depth IntInf | Incumbent    BestBd   Gap | It/Node Time

     0     0 1096.50000    0    8          - 1096.50000      -     -    0s
     0     0 1107.00000    0   22          - 1107.00000      -     -    0s
     0     0 1109.00000    0   24          - 1109.00000      -     -    0s
     0     0 1109.00000    0   24          - 1109.00000      -     -    0s
     0     2 1109.00000    0   24          - 1109.00000      -     -    0s
  4414  2712 1131.66667   36    6          - 1111.74182      -   6.7    5s
* 5162  3335             188    1432.0000000 1111.92518  22.4%   6.8    5s
* 5163  3335             189    1422.0000000 1111.92518  21.8%   6.8    5s
* 5823  3835             179    1362.0000000 1112.04722  18.4%   6.7    6s
* 6303  4062             194    1291.0000000 1112.04722  13.9%   6.7    8s
* 6480  4090             112    1286.0000000 1112.44152  13.5%   6.6    9s
H 6881  3929                    1226.0000000 1112.66667  9.24%   6.5    9s
  7066  3993     cutoff  111      1226.00000 1112.73130  9.24%   6.5   10s

Cutting planes:
  Gomory: 7
  Cover: 3
  MIR: 1
  Flow cover: 1
  Zero half: 6
  Lazy constraints: 847

Explored 7762 nodes (49083 simplex iterations) in 10.04 seconds
Thread count was 8 (of 8 available processors)

Time limit reached
Best objective 1.226000000000e+03, best bound 1.113000000000e+03, gap 9.2170%
